c SAT Generator for power-law distributed variable frequencies
c -g u -v 20 -c 91 -k 3 -p 2.750000 -b 3.200000 -f /home/schmidt/Devel/ni-kop-sat/data/ensemble/ruf20-91/ruf20-91-84 -u 1 -U 1 -s 1117353082
p cnf 20 91
-11 15 19 0
10 14 18 0
-5 16 19 0
4 12 -13 0
-15 -17 19 0
2 4 18 0
8 12 -20 0
2 13 -20 0
8 -13 17 0
-4 -12 -17 0
6 11 16 0
1 -5 20 0
-14 -17 19 0
5 16 -20 0
6 -13 -17 0
-1 -2 14 0
8 16 20 0
-3 -11 14 0
-5 10 15 0
5 -11 18 0
-5 -15 17 0
-12 16 -17 0
-8 12 19 0
-1 11 -20 0
8 -12 -20 0
10 -15 17 0
-5 -9 19 0
-6 13 -15 0
3 -15 -19 0
1 2 -17 0
-4 -10 13 0
2 -11 14 0
-9 18 19 0
-4 12 13 0
-2 -4 -19 0
1 -11 13 0
-3 12 -13 0
2 -3 13 0
-1 11 18 0
-3 -8 18 0
8 -10 -12 0
-5 8 -16 0
-7 -17 20 0
4 -7 12 0
-4 -18 19 0
8 13 16 0
5 -10 18 0
1 -9 13 0
-4 -11 20 0
-6 -10 -20 0
-2 7 -11 0
4 -18 20 0
1 2 -8 0
5 -10 -11 0
13 -16 19 0
9 13 -14 0
-2 8 11 0
14 16 -20 0
-1 4 -6 0
-9 -13 -15 0
2 -8 -9 0
-5 13 -20 0
1 -5 9 0
-8 -9 -10 0
-5 14 15 0
2 -11 20 0
-1 5 -7 0
-4 -8 13 0
6 -8 -16 0
-10 -13 16 0
5 -11 12 0
4 12 -14 0
4 -5 11 0
16 -18 -19 0
9 -11 17 0
-5 12 16 0
-5 15 -16 0
-7 -13 16 0
2 -6 -14 0
4 -13 -18 0
4 7 9 0
2 17 19 0
10 14 15 0
-2 -19 -20 0
1 2 10 0
-2 -3 -6 0
5 -10 16 0
1 -17 19 0
-6 7 15 0
-15 -16 20 0
-6 -13 19 0
